\ Model runway_allocation_copy
\ LP format - for model browsing. Use MPS format to capture full model detail.
Minimize
 
Subject To
 AC_sep_f1_f0_r0: 10 x1_0_0 >= 120
Bounds
Binaries
 x1_0_0
End
